c A instance generated from ses and 7 variables
p cnf 7 70
-5 1 7 0
-3 6 -2 0
-1 -4 -6 0
-3 -4 1 0
4 6 -4 0
6 -3 -2 0
-7 -2 4 0
2 -4 7 0
3 2 -6 0
2 7 -1 0
6 5 1 0
2 -1 -3 0
-5 -3 6 0
4 -3 7 0
-4 -7 3 0
2 -4 5 0
5 7 3 0
-7 -3 5 0
-1 -4 -5 0
-6 -1 -4 0
3 5 -1 0
-1 4 -2 0
-6 1 -5 0
-2 6 5 0
-7 5 -1 0
3 -5 -4 0
-3 6 2 0
7 -6 3 0
-2 -1 -4 0
5 3 4 0
-4 -5 -3 0
-3 -2 4 0
2 -1 5 0
-3 -4 7 0
2 1 -4 0
4 6 3 0
-1 -5 -3 0
-1 -3 7 0
-3 7 4 0
3 1 -6 0
-6 -7 -4 0
-3 -7 4 0
-2 5 1 0
-3 1 -7 0
7 -2 -4 0
5 3 -4 0
-2 6 -3 0
1 -5 3 0
1 3 -5 0
2 -5 -6 0
-3 -4 -7 0
-2 -5 4 0
-4 -3 -6 0
-5 2 -4 0
5 -4 1 0
-2 1 -5 0
7 -3 5 0
-2 1 -6 0
-5 -7 -3 0
-3 2 -6 0
3 1 -2 0
4 -1 7 0
-1 4 -3 0
-7 -5 -4 0
1 -3 4 0
-2 -4 -6 0
-2 1 3 0
-6 -2 4 0
-4 6 3 0
4 -6 2 0
